c A SAT instance generated from a 3-CNF formula that had 40 clauses and 10 variables
p cnf 10 40
4 -8 5 0
5 4 -2 0
8 -3 1 0
5 8 -9 0
9 -3 2 0
-3 -2 9 0
-7 5 8 0
3 -7 -9 0
-6 -2 -9 0
1 -5 2 0
-9 -6 7 0
3 -9 8 0
-7 5 -8 0
-10 9 6 0
-2 -7 -5 0
-2 -6 1 0
-10 5 3 0
4 10 7 0
6 10 8 0
10 4 9 0
-3 -7 5 0
-9 5 10 0
4 2 -5 0
4 9 5 0
5 -1 -10 0
2 -7 9 0
7 -4 -10 0
-1 4 6 0
7 -4 8 0
5 9 -7 0
1 -6 5 0
-10 -8 -1 0
-9 -8 10 0
8 -7 5 0
-4 7 6 0
2 6 1 0
-5 -2 -6 0
2 -8 5 0
1 -3 2 0
-6 5 -3 0
